8,4	0,0	10,0	13,6	0,0	0,0	0,0	0,0	0,0	10,3
12,6	8,3	0,0	11,6	17,5	0,0	0,0	8,3	0,0	0,0
0,0	0,0	14,3	0,0	18,2	13,8	0,0	0,0	17,1	0,0
5,7	0,0	17,7	0,0	0,0	0,0	18,4	0,0	0,0	0,0
0,0	10,2	0,0	11,8	13,9	0,0	0,0	13,2	0,0	0,0
0,0	6,3	17,4	0,0	15,6	17,4	0,0	0,0	16,6	0,0
0,0	13,5	0,0	11,1	0,0	0,0	15,1	0,0	0,0	8,1
8,5	0,0	18,9	0,0	0,0	0,0	0,0	0,0	0,0	16,6
0,0	18,4	0,0	12,8	19,5	0,0	0,0	19,5	0,0	0,0
0,0	0,0	12,8	0,0	0,0	7,1	18,3	0,0	0,0	7,1
0,0	12,4	0,0	0,0	8,0	0,0	8,9	0,0	8,0	7,5
5,4	0,0	11,8	0,0	10,4	0,0	17,8	18,4	10,3	0,0
0,0	15,3	0,0	0,0	0,0	8,5	0,0	18,0	13,1	19,1
5,8	10,5	13,9	0,0	0,0	17,4	0,0	5,8	5,2	0,0
16,5	0,0	12,7	0,0	14,3	7,4	15,3	5,8	0,0	0,0
0,0	16,2	0,0	13,5	0,0	7,7	0,0	19,9	0,0	0,0
9,6	0,0	6,5	6,5	19,0	0,0	0,0	7,6	0,0	0,0
0,0	0,0	5,9	0,0	0,0	11,1	16,3	0,0	11,9	12,3
13,5	0,0	0,0	15,4	16,3	10,8	17,1	9,8	0,0	10,6
0,0	17,9	0,0	16,0	0,0	0,0	9,6	0,0	9,5	8,4
									
3,4	3,6	4,5	2,9	3,1	5,0	2,7	4,1	3,5	3,6
